(declare-fun temp43620_1 () (_ BitVec 64))
(declare-fun temp43620_2 () (_ BitVec 64))
(declare-fun var77740 () (_ BitVec 64))
(declare-fun k!0 () Bool)
(declare-fun ARGNAME_input_1_NAMEEND_DIM () (_ BitVec 64))
(declare-fun ARGNAME_data_format_NAMEEND_STRFMT () (_ BitVec 64))
(declare-fun temp43620_3 () (_ BitVec 64))
(declare-fun ARGNAME_input_2_NAMEEND_DIM () (_ BitVec 64))
(declare-fun var77770 () (_ BitVec 64))
(declare-fun temp43620_4 () (_ BitVec 64))
(declare-fun temp43620_5 () (_ BitVec 64))
(declare-fun ARGNAME_input_1_NAMEEND_DIMSIZE
             ()
             (Array (_ BitVec 64) (_ BitVec 64)))
(declare-fun temp43620_6 () (_ BitVec 64))
(declare-fun temp43620_7 () (_ BitVec 64))
(declare-fun temp43620_8 () (_ BitVec 64))
(declare-fun temp43620_9 () (_ BitVec 64))
(declare-fun temp43620_10 () (_ BitVec 64))
(declare-fun temp43620_11 () (_ BitVec 64))
(declare-fun temp43620_12 () (_ BitVec 64))
(declare-fun temp43620_13 () (_ BitVec 64))
(declare-fun temp43620_14 () (_ BitVec 64))
(declare-fun temp43620_15 () (_ BitVec 64))
(declare-fun temp43620_16 () (_ BitVec 64))
(declare-fun temp43620_17 () (_ BitVec 64))
(declare-fun temp43620_18 () (_ BitVec 64))
(declare-fun var77799 () (_ BitVec 64))
(declare-fun temp43620_19 () (_ BitVec 64))
(declare-fun ARGNAME_input_2_NAMEEND_DIMSIZE
             ()
             (Array (_ BitVec 64) (_ BitVec 64)))
(declare-fun temp43620_20 () (_ BitVec 64))
(declare-fun temp43620_21 () (_ BitVec 64))
(declare-fun temp43620_22 () (_ BitVec 64))
(declare-fun temp43620_23 () (_ BitVec 64))
(declare-fun temp43620_24 () (_ BitVec 64))
(declare-fun temp43620_25 () (_ BitVec 64))
(declare-fun temp43620_26 () (_ BitVec 64))
(declare-fun temp43620_27 () (_ BitVec 64))
(declare-fun temp43620_28 () (_ BitVec 64))
(declare-fun temp43620_29 () (_ BitVec 64))
(declare-fun temp43620_30 () (_ BitVec 64))
(declare-fun temp43620_31 () (_ BitVec 64))
(declare-fun temp43620_32 () (_ BitVec 64))
(declare-fun var77832 () (_ BitVec 64))
(declare-fun temp43620_33 () (_ BitVec 64))
(declare-fun temp43620_34 () (_ BitVec 64))
(declare-fun var77833 () (_ BitVec 64))
(declare-fun var77834 () (_ BitVec 64))
(declare-fun temp43620_35 () (_ BitVec 64))
(declare-fun temp43620_36 () (_ BitVec 64))
(declare-fun var275510 () (_ BitVec 64))
(declare-fun temp43620_37 () (_ BitVec 64))
(declare-fun var275528 () (_ BitVec 64))
(declare-fun temp43620_38 () (_ BitVec 64))
(declare-fun temp43620_40 () (_ BitVec 64))
(declare-fun temp43620_39 () (_ BitVec 64))
(declare-fun temp43620_42 () (_ BitVec 64))
(declare-fun temp43620_41 () (_ BitVec 64))
(declare-fun temp43620_43 () (_ BitVec 64))
(declare-fun var406582 () (_ BitVec 64))
(declare-fun temp43620_44 () (_ BitVec 64))
(declare-fun var406600 () (_ BitVec 64))
(declare-fun temp43620_45 () (_ BitVec 64))
(declare-fun temp43620_46 () (_ BitVec 64))
(declare-fun var537654 () (_ BitVec 64))
(declare-fun temp43620_47 () (_ BitVec 64))
(declare-fun var537672 () (_ BitVec 64))
(declare-fun temp43620_48 () (_ BitVec 64))
(declare-fun temp43620_50 () (_ BitVec 64))
(declare-fun temp43620_49 () (_ BitVec 64))
(declare-fun temp43620_52 () (_ BitVec 64))
(declare-fun temp43620_51 () (_ BitVec 64))
(declare-fun temp43620_54 () (_ BitVec 64))
(declare-fun temp43620_53 () (_ BitVec 64))
(declare-fun temp43620_55 () (_ BitVec 64))
(declare-fun var730187 () (_ BitVec 64))
(declare-fun var730166 () (_ BitVec 64))
(declare-fun var664598 () (_ BitVec 64))
(declare-fun temp43620_56 () (_ BitVec 64))
(declare-fun temp43620_57 () (_ BitVec 64))
(declare-fun var795723 () (_ BitVec 64))
(declare-fun var795702 () (_ BitVec 64))
(declare-fun var664608 () (_ BitVec 64))
(declare-fun temp43620_58 () (_ BitVec 64))
(declare-fun temp43620_59 () (_ BitVec 64))
(declare-fun var861259 () (_ BitVec 64))
(declare-fun var861238 () (_ BitVec 64))
(declare-fun var664611 () (_ BitVec 64))
(declare-fun temp43620_60 () (_ BitVec 64))
(declare-fun temp43620_61 () (_ BitVec 64))
(declare-fun var1057842 () (_ BitVec 64))
(declare-fun temp43620_62 () (_ BitVec 64))
(declare-fun var1123378 () (_ BitVec 64))
(declare-fun temp43620_63 () (_ BitVec 64))
(declare-fun var1188914 () (_ BitVec 64))
(declare-fun temp43620_64 () (_ BitVec 64))
(declare-fun var78184 () (_ BitVec 64))
(assert (or (= ARGNAME_data_format_NAMEEND_STRFMT #x0000000000000000)
    (= ARGNAME_data_format_NAMEEND_STRFMT #x0000000000000001)
    (= ARGNAME_data_format_NAMEEND_STRFMT #x0000000000000002)
    (= ARGNAME_data_format_NAMEEND_STRFMT #x0000000000000003)
    (= ARGNAME_data_format_NAMEEND_STRFMT #x0000000000000004)
    (= ARGNAME_data_format_NAMEEND_STRFMT #x0000000000000005)))
(assert (= temp43620_1 #x0000000000000005))
(assert (= var77740
   (ite (= ARGNAME_input_1_NAMEEND_DIM temp43620_1)
        #x0000000000000001
        #x0000000000000000)))
(assert (= temp43620_2 #x0000000000000001))
(assert (= var77740 temp43620_2))
(assert (= temp43620_3 #x0000000000000005))
(assert (= var77770
   (ite (= ARGNAME_input_2_NAMEEND_DIM temp43620_3)
        #x0000000000000001
        #x0000000000000000)))
(assert (= temp43620_4 #x0000000000000001))
(assert (= var77770 temp43620_4))
(assert (= temp43620_5 #x0000000000000000))
(assert (= temp43620_6 (select ARGNAME_input_1_NAMEEND_DIMSIZE temp43620_5)))
(assert (= temp43620_7 #x0000000000000001))
(assert (= temp43620_8 (select ARGNAME_input_1_NAMEEND_DIMSIZE temp43620_7)))
(assert (= temp43620_9 #x0000000000000002))
(assert (= temp43620_10 (select ARGNAME_input_1_NAMEEND_DIMSIZE temp43620_9)))
(assert (= temp43620_11 #x0000000000000003))
(assert (= temp43620_12 (select ARGNAME_input_1_NAMEEND_DIMSIZE temp43620_11)))
(assert (= temp43620_13 #x0000000000000004))
(assert (= temp43620_14 (select ARGNAME_input_1_NAMEEND_DIMSIZE temp43620_13)))
(assert (= temp43620_15 #x0000000000000005))
(assert (= temp43620_16 (select ARGNAME_input_1_NAMEEND_DIMSIZE temp43620_15)))
(assert (= temp43620_17 #x0000000000000003))
(assert (= temp43620_18 (select ARGNAME_input_1_NAMEEND_DIMSIZE temp43620_17)))
(assert (= var77799 temp43620_18))
(assert (= temp43620_19 #x0000000000000000))
(assert (= temp43620_20 (select ARGNAME_input_2_NAMEEND_DIMSIZE temp43620_19)))
(assert (= temp43620_21 #x0000000000000001))
(assert (= temp43620_22 (select ARGNAME_input_2_NAMEEND_DIMSIZE temp43620_21)))
(assert (= temp43620_23 #x0000000000000002))
(assert (= temp43620_24 (select ARGNAME_input_2_NAMEEND_DIMSIZE temp43620_23)))
(assert (= temp43620_25 #x0000000000000003))
(assert (= temp43620_26 (select ARGNAME_input_2_NAMEEND_DIMSIZE temp43620_25)))
(assert (= temp43620_27 #x0000000000000004))
(assert (= temp43620_28 (select ARGNAME_input_2_NAMEEND_DIMSIZE temp43620_27)))
(assert (= temp43620_29 #x0000000000000005))
(assert (= temp43620_30 (select ARGNAME_input_2_NAMEEND_DIMSIZE temp43620_29)))
(assert (= temp43620_31 #x0000000000000004))
(assert (= temp43620_32 (select ARGNAME_input_2_NAMEEND_DIMSIZE temp43620_31)))
(assert (= var77832 temp43620_32))
(assert (= temp43620_33 #x0000000000000004))
(assert (= temp43620_34 (select ARGNAME_input_1_NAMEEND_DIMSIZE temp43620_33)))
(assert (= var77833 temp43620_34))
(assert (= var77834 (ite (= var77832 var77833) #x0000000000000001 #x0000000000000000)))
(assert (= temp43620_35 #x0000000000000001))
(assert (= var77834 temp43620_35))
(assert (= temp43620_36 #x0000000000000001))
(assert (= var275510 temp43620_36))
(assert (= temp43620_37 #x0000000000000001))
(assert (= var275528
   (ite (bvslt var275510 temp43620_37) #x0000000000000001 #x0000000000000000)))
(assert (= temp43620_38 #x0000000000000000))
(assert (= var275528 temp43620_38))
(assert (= temp43620_40 #x0000000000000000))
(assert (= temp43620_39 temp43620_40))
(assert (= temp43620_42 #x0000000000000000))
(assert (= temp43620_41 temp43620_42))
(assert (= temp43620_43 #x0000000000000001))
(assert (= var406582 temp43620_43))
(assert (= temp43620_44 #x0000000000000001))
(assert (= var406600
   (ite (bvslt var406582 temp43620_44) #x0000000000000001 #x0000000000000000)))
(assert (= temp43620_45 #x0000000000000000))
(assert (= var406600 temp43620_45))
(assert (= temp43620_46 #x0000000000000001))
(assert (= var537654 temp43620_46))
(assert (= temp43620_47 #x0000000000000001))
(assert (= var537672
   (ite (bvslt var537654 temp43620_47) #x0000000000000001 #x0000000000000000)))
(assert (= temp43620_48 #x0000000000000000))
(assert (= var537672 temp43620_48))
(assert (= temp43620_50 #x00000000000000ff))
(assert (= temp43620_49 temp43620_50))
(assert (= temp43620_52 #x00000000000000ff))
(assert (= temp43620_51 temp43620_52))
(assert (= temp43620_54 #x00000000000000ff))
(assert (= temp43620_53 temp43620_54))
(assert (= temp43620_55 #x0000000000000000))
(assert (= var730187 temp43620_55))
(assert (= var730166 var730187))
(assert (= var664598 var730166))
(assert (= temp43620_56 #x0000000000000000))
(assert (= var664598 temp43620_56))
(assert (= temp43620_57 #x0000000000000000))
(assert (= var795723 temp43620_57))
(assert (= var795702 var795723))
(assert (= var664608 var795702))
(assert (= temp43620_58 #x0000000000000000))
(assert (= var664608 temp43620_58))
(assert (= temp43620_59 #x0000000000000000))
(assert (= var861259 temp43620_59))
(assert (= var861238 var861259))
(assert (= var664611 var861238))
(assert (= temp43620_60 #x0000000000000000))
(assert (= var664611 temp43620_60))
(assert (= temp43620_61 #x0000000000008000))
(assert (= var1057842 temp43620_61))
(assert (= temp43620_62 #x0000000000040000))
(assert (= var1123378 temp43620_62))
(assert (= temp43620_63 #x0000000000200000))
(assert (= var1188914 temp43620_63))
(assert (= temp43620_64 #x0000000000000001))
(assert (= var78184 temp43620_64))
(model-add temp43620_1 () (_ BitVec 64) #x0000000000000005)
(model-add temp43620_2 () (_ BitVec 64) #x0000000000000001)
(model-add var77740 () (_ BitVec 64) #x0000000000000001)
(model-del k!0)
(model-add ARGNAME_input_1_NAMEEND_DIM
           ()
           (_ BitVec 64)
           (ite k!0 #x0000000000000005 (bvnot #x0000000000000005)))

